certificates/rado_a6_c50_N11.cnf
c Rad2 upper bound instance: x1 + 6*x2 - x3 = 50, interval [1,11]
p cnf 11 40
1 5 9 0
-1 -5 -9 0
1 10 11 0
-1 -10 -11 0
2 6 9 0
-2 -6 -9 0
1 3 8 0
-1 -3 -8 0
3 7 9 0
-3 -7 -9 0
2 4 8 0
-2 -4 -8 0
4 8 9 0
-4 -8 -9 0
3 5 8 0
-3 -5 -8 0
5 9 0
-5 -9 0
4 6 8 0
-4 -6 -8 0
6 9 10 0
-6 -9 -10 0
5 7 8 0
-5 -7 -8 0
7 9 11 0
-7 -9 -11 0
6 8 0
-6 -8 0
1 7 9 0
-1 -7 -9 0
7 8 9 0
-7 -8 -9 0
2 7 10 0
-2 -7 -10 0
8 10 0
-8 -10 0
3 7 11 0
-3 -7 -11 0
8 9 11 0
-8 -9 -11 0
