certificates/rado_a6_c50_N11.drat
-10 -11 0
-11 0
10 0
-8 0
6 0
9 0
0
